benchmarks/bfuzz0/246871453212833677322702140736914628.smt2
(set-logic QF_FP)
(declare-const x0 (_ FloatingPoint 8 24))
(declare-const x1 (_ FloatingPoint 8 24))
(declare-const x2 (_ FloatingPoint 8 24))
(declare-const x3 (_ FloatingPoint 8 24))
(declare-const x4 (_ FloatingPoint 8 24))
(declare-const x5 (_ FloatingPoint 8 24))
(declare-const x6 (_ FloatingPoint 8 24))
(declare-const x7 (_ FloatingPoint 8 24))
(declare-const x8 (_ FloatingPoint 8 24))
(declare-const x9 (_ FloatingPoint 8 24))
(assert (fp.gt (fp.sub RNE (fp.add RNE x8 x7) (fp.div RNE x4 x8)) (fp.mul RNE (fp.sub RNE x7 x0) (fp.add RNE x2 x9))))
(assert (fp.gt (fp.div RNE (fp.add RNE x7 x8) (fp.mul RNE x8 x8)) (fp.sub RNE (fp.div RNE x7 x6) (fp.sub RNE x8 x9))))
(assert (fp.lt (fp.sub RNE (fp.add RNE x1 x9) (fp.sub RNE x7 x5)) (fp.div RNE (fp.div RNE x1 x1) (fp.div RNE x4 x4))))
(assert (fp.leq (fp.add RNE (fp.neg x4) (fp.mul RNE x9 x1)) (fp.div RNE (fp.neg x2) (fp.sub RNE x8 x6))))
(assert (fp.geq (fp.sub RNE (fp.div RNE x4 x5) (fp.mul RNE x6 x8)) (fp.sub RNE (fp.neg x9) (fp.mul RNE x1 x8))))
(assert (fp.leq (fp.sub RNE (fp.div RNE x3 x1) (fp.div RNE x1 x6)) (fp.sub RNE (fp.mul RNE x6 x1) (fp.div RNE x2 x5))))
(assert (fp.geq (fp.neg (fp.add RNE x0 x8)) (fp.mul RNE (fp.mul RNE x2 x8) (fp.div RNE x5 x7))))
(assert (fp.geq (fp.div RNE (fp.neg x4) (fp.add RNE x8 x4)) (fp.neg (fp.neg x6))))
(assert (fp.lt (fp.mul RNE (fp.sub RNE x4 x7) (fp.neg x6)) (fp.neg (fp.mul RNE x0 x2))))
(assert (fp.lt (fp.div RNE (fp.sub RNE x2 x8) (fp.mul RNE x6 x8)) (fp.sub RNE (fp.mul RNE x1 x2) (fp.div RNE x5 x6))))
(assert (fp.gt (fp.neg (fp.div RNE x2 x7)) (fp.add RNE (fp.div RNE x8 x9) (fp.neg x0))))
(check-sat)
