db/data/246871453212833677322702140736914628.z3.out
sat
-------------------
1252.246066281
